\Problem name: compact

Minimize
OBJROW: C
Subject To
ord(0,1):  x(0,0) - x(0,1) >= 3
ord(0,2):  - x(0,0) + x(0,3) >= 8
ord(0,3):  x(0,2) - x(0,3) >= 2
ord(1,1):  x(1,0) - x(1,3) >= 2
ord(1,2):  - x(1,0) + x(1,1) >= 6
ord(1,3):  - x(1,1) + x(1,2) >= 1
ord(2,1):  x(2,1) - x(2,2) >= 10
ord(2,2):  - x(2,1) + x(2,3) >= 10
ord(2,3):  x(2,0) - x(2,3) >= 6
ord(3,1):  x(3,0) - x(3,3) >= 2
ord(3,2):  - x(3,0) + x(3,1) >= 6
ord(3,3):  - x(3,1) + x(3,2) >= 9
ord(4,1):  - x(4,2) + x(4,3) >= 3
ord(4,2):  x(4,0) - x(4,3) >= 6
ord(4,3):  - x(4,0) + x(4,1) >= 3
triangle2(0,1,0):  y(0,1,0) + y(1,0,0) = 1
triangle2(0,1,1):  y(0,1,1) + y(1,0,1) = 1
triangle2(0,1,2):  y(0,1,2) + y(1,0,2) = 1
triangle2(0,1,3):  y(0,1,3) + y(1,0,3) = 1
triangle2(0,2,0):  y(0,2,0) + y(2,0,0) = 1
triangle2(0,2,1):  y(0,2,1) + y(2,0,1) = 1
triangle2(0,2,2):  y(0,2,2) + y(2,0,2) = 1
triangle2(0,2,3):  y(0,2,3) + y(2,0,3) = 1
triangle2(0,3,0):  y(0,3,0) + y(3,0,0) = 1
triangle2(0,3,1):  y(0,3,1) + y(3,0,1) = 1
triangle2(0,3,2):  y(0,3,2) + y(3,0,2) = 1
triangle2(0,3,3):  y(0,3,3) + y(3,0,3) = 1
triangle2(0,4,0):  y(0,4,0) + y(4,0,0) = 1
triangle2(0,4,1):  y(0,4,1) + y(4,0,1) = 1
triangle2(0,4,2):  y(0,4,2) + y(4,0,2) = 1
triangle2(0,4,3):  y(0,4,3) + y(4,0,3) = 1
triangle2(1,2,0):  y(1,2,0) + y(2,1,0) = 1
triangle2(1,2,1):  y(1,2,1) + y(2,1,1) = 1
triangle2(1,2,2):  y(1,2,2) + y(2,1,2) = 1
triangle2(1,2,3):  y(1,2,3) + y(2,1,3) = 1
triangle2(1,3,0):  y(1,3,0) + y(3,1,0) = 1
triangle2(1,3,1):  y(1,3,1) + y(3,1,1) = 1
triangle2(1,3,2):  y(1,3,2) + y(3,1,2) = 1
triangle2(1,3,3):  y(1,3,3) + y(3,1,3) = 1
triangle2(1,4,0):  y(1,4,0) + y(4,1,0) = 1
triangle2(1,4,1):  y(1,4,1) + y(4,1,1) = 1
triangle2(1,4,2):  y(1,4,2) + y(4,1,2) = 1
triangle2(1,4,3):  y(1,4,3) + y(4,1,3) = 1
triangle2(2,3,0):  y(2,3,0) + y(3,2,0) = 1
triangle2(2,3,1):  y(2,3,1) + y(3,2,1) = 1
triangle2(2,3,2):  y(2,3,2) + y(3,2,2) = 1
triangle2(2,3,3):  y(2,3,3) + y(3,2,3) = 1
triangle2(2,4,0):  y(2,4,0) + y(4,2,0) = 1
triangle2(2,4,1):  y(2,4,1) + y(4,2,1) = 1
triangle2(2,4,2):  y(2,4,2) + y(4,2,2) = 1
triangle2(2,4,3):  y(2,4,3) + y(4,2,3) = 1
triangle2(3,4,0):  y(3,4,0) + y(4,3,0) = 1
triangle2(3,4,1):  y(3,4,1) + y(4,3,1) = 1
triangle2(3,4,2):  y(3,4,2) + y(4,3,2) = 1
triangle2(3,4,3):  y(3,4,3) + y(4,3,3) = 1
MCLinV(0,1,0):  x(0,0) - v(0,1,0) - x(1,0) = 6
MCLinV(1,0,0):  - x(0,0) - v(1,0,0) + x(1,0) = 8
MCLin1(0,1,0):  u(0,1,0) >= -0
MCLin2(0,1,0):  -96 y(1,0,0) - u(0,1,0) <= -0
MCLin3(0,1,0):  86 y(1,0,0) + v(0,1,0) - u(0,1,0) <= 86
MCLin4(0,1,0):  86 y(1,0,0) - u(0,1,0) >= -0
MCLin5(0,1,0):  -96 y(1,0,0) + v(0,1,0) - u(0,1,0) >= -96
MCLin6(1,0,0):  u(1,0,0) >= -0
MCLin7(1,0,0):  -100 y(0,1,0) - u(1,0,0) <= -0
MCLin8(1,0,0):  82 y(0,1,0) + v(1,0,0) - u(1,0,0) <= 82
MCLin9(1,0,0):  82 y(0,1,0) - u(1,0,0) >= -0
MCLin10(1,0,0):  -100 y(0,1,0) + v(1,0,0) - u(1,0,0) >= -100
MCLinV(0,1,1):  x(0,1) - v(0,1,1) - x(1,1) = 1
MCLinV(1,0,1):  - x(0,1) - v(1,0,1) + x(1,1) = 3
MCLin1(0,1,1):  u(0,1,1) >= -0
MCLin2(0,1,1):  -100 y(1,0,1) - u(0,1,1) <= -0
MCLin3(0,1,1):  82 y(1,0,1) + v(0,1,1) - u(0,1,1) <= 82
MCLin4(0,1,1):  82 y(1,0,1) - u(0,1,1) >= -0
MCLin5(0,1,1):  -100 y(1,0,1) + v(0,1,1) - u(0,1,1) >= -100
MCLin6(1,0,1):  u(1,0,1) >= -0
MCLin7(1,0,1):  -86 y(0,1,1) - u(1,0,1) <= -0
MCLin8(1,0,1):  96 y(0,1,1) + v(1,0,1) - u(1,0,1) <= 96
MCLin9(1,0,1):  96 y(0,1,1) - u(1,0,1) >= -0
MCLin10(1,0,1):  -86 y(0,1,1) + v(1,0,1) - u(1,0,1) >= -86
MCLinV(0,1,2):  x(0,2) - v(0,1,2) - x(1,2) = 8
MCLinV(1,0,2):  - x(0,2) - v(1,0,2) + x(1,2) = 4
MCLin1(0,1,2):  u(0,1,2) >= -0
MCLin2(0,1,2):  -95 y(1,0,2) - u(0,1,2) <= -0
MCLin3(0,1,2):  87 y(1,0,2) + v(0,1,2) - u(0,1,2) <= 87
MCLin4(0,1,2):  87 y(1,0,2) - u(0,1,2) >= -0
MCLin5(0,1,2):  -95 y(1,0,2) + v(0,1,2) - u(0,1,2) >= -95
MCLin6(1,0,2):  u(1,0,2) >= -0
MCLin7(1,0,2):  -99 y(0,1,2) - u(1,0,2) <= -0
MCLin8(1,0,2):  83 y(0,1,2) + v(1,0,2) - u(1,0,2) <= 83
MCLin9(1,0,2):  83 y(0,1,2) - u(1,0,2) >= -0
MCLin10(1,0,2):  -99 y(0,1,2) + v(1,0,2) - u(1,0,2) >= -99
MCLinV(0,1,3):  x(0,3) - v(0,1,3) - x(1,3) = 2
MCLinV(1,0,3):  - x(0,3) - v(1,0,3) + x(1,3) = 2
MCLin1(0,1,3):  u(0,1,3) >= -0
MCLin2(0,1,3):  -82 y(1,0,3) - u(0,1,3) <= -0
MCLin3(0,1,3):  100 y(1,0,3) + v(0,1,3) - u(0,1,3) <= 100
MCLin4(0,1,3):  100 y(1,0,3) - u(0,1,3) >= -0
MCLin5(0,1,3):  -82 y(1,0,3) + v(0,1,3) - u(0,1,3) >= -82
MCLin6(1,0,3):  u(1,0,3) >= -0
MCLin7(1,0,3):  -104 y(0,1,3) - u(1,0,3) <= -0
MCLin8(1,0,3):  78 y(0,1,3) + v(1,0,3) - u(1,0,3) <= 78
MCLin9(1,0,3):  78 y(0,1,3) - u(1,0,3) >= -0
MCLin10(1,0,3):  -104 y(0,1,3) + v(1,0,3) - u(1,0,3) >= -104
MCLinV(0,2,0):  x(0,0) - v(0,2,0) - x(2,0) = 3
MCLinV(2,0,0):  - x(0,0) - v(2,0,0) + x(2,0) = 8
MCLin1(0,2,0):  u(0,2,0) >= -0
MCLin2(0,2,0):  -105 y(2,0,0) - u(0,2,0) <= -0
MCLin3(0,2,0):  65 y(2,0,0) + v(0,2,0) - u(0,2,0) <= 65
MCLin4(0,2,0):  65 y(2,0,0) - u(0,2,0) >= -0
MCLin5(0,2,0):  -105 y(2,0,0) + v(0,2,0) - u(0,2,0) >= -105
MCLin6(2,0,0):  u(2,0,0) >= -0
MCLin7(2,0,0):  -76 y(0,2,0) - u(2,0,0) <= -0
MCLin8(2,0,0):  94 y(0,2,0) + v(2,0,0) - u(2,0,0) <= 94
MCLin9(2,0,0):  94 y(0,2,0) - u(2,0,0) >= -0
MCLin10(2,0,0):  -76 y(0,2,0) + v(2,0,0) - u(2,0,0) >= -76
MCLinV(0,2,1):  x(0,1) - v(0,2,1) - x(2,1) = 10
MCLinV(2,0,1):  - x(0,1) - v(2,0,1) + x(2,1) = 3
MCLin1(0,2,1):  u(0,2,1) >= -0
MCLin2(0,2,1):  -99 y(2,0,1) - u(0,2,1) <= -0
MCLin3(0,2,1):  71 y(2,0,1) + v(0,2,1) - u(0,2,1) <= 71
MCLin4(0,2,1):  71 y(2,0,1) - u(0,2,1) >= -0
MCLin5(0,2,1):  -99 y(2,0,1) + v(0,2,1) - u(0,2,1) >= -99
MCLin6(2,0,1):  u(2,0,1) >= -0
MCLin7(2,0,1):  -84 y(0,2,1) - u(2,0,1) <= -0
MCLin8(2,0,1):  86 y(0,2,1) + v(2,0,1) - u(2,0,1) <= 86
MCLin9(2,0,1):  86 y(0,2,1) - u(2,0,1) >= -0
MCLin10(2,0,1):  -84 y(0,2,1) + v(2,0,1) - u(2,0,1) >= -84
MCLinV(0,2,2):  x(0,2) - v(0,2,2) - x(2,2) = 10
MCLinV(2,0,2):  - x(0,2) - v(2,0,2) + x(2,2) = 4
MCLin1(0,2,2):  u(0,2,2) >= -0
MCLin2(0,2,2):  -76 y(2,0,2) - u(0,2,2) <= -0
MCLin3(0,2,2):  94 y(2,0,2) + v(0,2,2) - u(0,2,2) <= 94
MCLin4(0,2,2):  94 y(2,0,2) - u(0,2,2) >= -0
MCLin5(0,2,2):  -76 y(2,0,2) + v(0,2,2) - u(0,2,2) >= -76
MCLin6(2,0,2):  u(2,0,2) >= -0
MCLin7(2,0,2):  -108 y(0,2,2) - u(2,0,2) <= -0
MCLin8(2,0,2):  62 y(0,2,2) + v(2,0,2) - u(2,0,2) <= 62
MCLin9(2,0,2):  62 y(0,2,2) - u(2,0,2) >= -0
MCLin10(2,0,2):  -108 y(0,2,2) + v(2,0,2) - u(2,0,2) >= -108
MCLinV(0,2,3):  x(0,3) - v(0,2,3) - x(2,3) = 6
MCLinV(2,0,3):  - x(0,3) - v(2,0,3) + x(2,3) = 2
MCLin1(0,2,3):  u(0,2,3) >= -0
MCLin2(0,2,3):  -94 y(2,0,3) - u(0,2,3) <= -0
MCLin3(0,2,3):  76 y(2,0,3) + v(0,2,3) - u(0,2,3) <= 76
MCLin4(0,2,3):  76 y(2,0,3) - u(0,2,3) >= -0
MCLin5(0,2,3):  -94 y(2,0,3) + v(0,2,3) - u(0,2,3) >= -94
MCLin6(2,0,3):  u(2,0,3) >= -0
MCLin7(2,0,3):  -84 y(0,2,3) - u(2,0,3) <= -0
MCLin8(2,0,3):  86 y(0,2,3) + v(2,0,3) - u(2,0,3) <= 86
MCLin9(2,0,3):  86 y(0,2,3) - u(2,0,3) >= -0
MCLin10(2,0,3):  -84 y(0,2,3) + v(2,0,3) - u(2,0,3) >= -84
MCLinV(0,3,0):  x(0,0) - v(0,3,0) - x(3,0) = 6
MCLinV(3,0,0):  - x(0,0) - v(3,0,0) + x(3,0) = 8
MCLin1(0,3,0):  u(0,3,0) >= -0
MCLin2(0,3,0):  -87 y(3,0,0) - u(0,3,0) <= -0
MCLin3(0,3,0):  86 y(3,0,0) + v(0,3,0) - u(0,3,0) <= 86
MCLin4(0,3,0):  86 y(3,0,0) - u(0,3,0) >= -0
MCLin5(0,3,0):  -87 y(3,0,0) + v(0,3,0) - u(0,3,0) >= -87
MCLin6(3,0,0):  u(3,0,0) >= -0
MCLin7(3,0,0):  -100 y(0,3,0) - u(3,0,0) <= -0
MCLin8(3,0,0):  73 y(0,3,0) + v(3,0,0) - u(3,0,0) <= 73
MCLin9(3,0,0):  73 y(0,3,0) - u(3,0,0) >= -0
MCLin10(3,0,0):  -100 y(0,3,0) + v(3,0,0) - u(3,0,0) >= -100
MCLinV(0,3,1):  x(0,1) - v(0,3,1) - x(3,1) = 9
MCLinV(3,0,1):  - x(0,1) - v(3,0,1) + x(3,1) = 3
MCLin1(0,3,1):  u(0,3,1) >= -0
MCLin2(0,3,1):  -99 y(3,0,1) - u(0,3,1) <= -0
MCLin3(0,3,1):  74 y(3,0,1) + v(0,3,1) - u(0,3,1) <= 74
MCLin4(0,3,1):  74 y(3,0,1) - u(0,3,1) >= -0
MCLin5(0,3,1):  -99 y(3,0,1) + v(0,3,1) - u(0,3,1) >= -99
MCLin6(3,0,1):  u(3,0,1) >= -0
MCLin7(3,0,1):  -86 y(0,3,1) - u(3,0,1) <= -0
MCLin8(3,0,1):  87 y(0,3,1) + v(3,0,1) - u(3,0,1) <= 87
MCLin9(3,0,1):  87 y(0,3,1) - u(3,0,1) >= -0
MCLin10(3,0,1):  -86 y(0,3,1) + v(3,0,1) - u(3,0,1) >= -86
MCLinV(0,3,2):  x(0,2) - v(0,3,2) - x(3,2) = 9
MCLinV(3,0,2):  - x(0,2) - v(3,0,2) + x(3,2) = 4
MCLin1(0,3,2):  u(0,3,2) >= -0
MCLin2(0,3,2):  -95 y(3,0,2) - u(0,3,2) <= -0
MCLin3(0,3,2):  78 y(3,0,2) + v(0,3,2) - u(0,3,2) <= 78
MCLin4(0,3,2):  78 y(3,0,2) - u(0,3,2) >= -0
MCLin5(0,3,2):  -95 y(3,0,2) + v(0,3,2) - u(0,3,2) >= -95
MCLin6(3,0,2):  u(3,0,2) >= -0
MCLin7(3,0,2):  -91 y(0,3,2) - u(3,0,2) <= -0
MCLin8(3,0,2):  82 y(0,3,2) + v(3,0,2) - u(3,0,2) <= 82
MCLin9(3,0,2):  82 y(0,3,2) - u(3,0,2) >= -0
MCLin10(3,0,2):  -91 y(0,3,2) + v(3,0,2) - u(3,0,2) >= -91
MCLinV(0,3,3):  x(0,3) - v(0,3,3) - x(3,3) = 2
MCLinV(3,0,3):  - x(0,3) - v(3,0,3) + x(3,3) = 2
MCLin1(0,3,3):  u(0,3,3) >= -0
MCLin2(0,3,3):  -73 y(3,0,3) - u(0,3,3) <= -0
MCLin3(0,3,3):  100 y(3,0,3) + v(0,3,3) - u(0,3,3) <= 100
MCLin4(0,3,3):  100 y(3,0,3) - u(0,3,3) >= -0
MCLin5(0,3,3):  -73 y(3,0,3) + v(0,3,3) - u(0,3,3) >= -73
MCLin6(3,0,3):  u(3,0,3) >= -0
MCLin7(3,0,3):  -104 y(0,3,3) - u(3,0,3) <= -0
MCLin8(3,0,3):  69 y(0,3,3) + v(3,0,3) - u(3,0,3) <= 69
MCLin9(3,0,3):  69 y(0,3,3) - u(3,0,3) >= -0
MCLin10(3,0,3):  -104 y(0,3,3) + v(3,0,3) - u(3,0,3) >= -104
MCLinV(0,4,0):  x(0,0) - v(0,4,0) - x(4,0) = 3
MCLinV(4,0,0):  - x(0,0) - v(4,0,0) + x(4,0) = 8
MCLin1(0,4,0):  u(0,4,0) >= -0
MCLin2(0,4,0):  -98 y(4,0,0) - u(0,4,0) <= -0
MCLin3(0,4,0):  82 y(4,0,0) + v(0,4,0) - u(0,4,0) <= 82
MCLin4(0,4,0):  82 y(4,0,0) - u(0,4,0) >= -0
MCLin5(0,4,0):  -98 y(4,0,0) + v(0,4,0) - u(0,4,0) >= -98
MCLin6(4,0,0):  u(4,0,0) >= -0
MCLin7(4,0,0):  -93 y(0,4,0) - u(4,0,0) <= -0
MCLin8(4,0,0):  87 y(0,4,0) + v(4,0,0) - u(4,0,0) <= 87
MCLin9(4,0,0):  87 y(0,4,0) - u(4,0,0) >= -0
MCLin10(4,0,0):  -93 y(0,4,0) + v(4,0,0) - u(4,0,0) >= -93
MCLinV(0,4,1):  x(0,1) - v(0,4,1) - x(4,1) = 7
MCLinV(4,0,1):  - x(0,1) - v(4,0,1) + x(4,1) = 3
MCLin1(0,4,1):  u(0,4,1) >= -0
MCLin2(0,4,1):  -108 y(4,0,1) - u(0,4,1) <= -0
MCLin3(0,4,1):  72 y(4,0,1) + v(0,4,1) - u(0,4,1) <= 72
MCLin4(0,4,1):  72 y(4,0,1) - u(0,4,1) >= -0
MCLin5(0,4,1):  -108 y(4,0,1) + v(0,4,1) - u(0,4,1) >= -108
MCLin6(4,0,1):  u(4,0,1) >= -0
MCLin7(4,0,1):  -82 y(0,4,1) - u(4,0,1) <= -0
MCLin8(4,0,1):  98 y(0,4,1) + v(4,0,1) - u(4,0,1) <= 98
MCLin9(4,0,1):  98 y(0,4,1) - u(4,0,1) >= -0
MCLin10(4,0,1):  -82 y(0,4,1) + v(4,0,1) - u(4,0,1) >= -82
MCLinV(0,4,2):  x(0,2) - v(0,4,2) - x(4,2) = 3
MCLinV(4,0,2):  - x(0,2) - v(4,0,2) + x(4,2) = 4
MCLin1(0,4,2):  u(0,4,2) >= -0
MCLin2(0,4,2):  -79 y(4,0,2) - u(0,4,2) <= -0
MCLin3(0,4,2):  101 y(4,0,2) + v(0,4,2) - u(0,4,2) <= 101
MCLin4(0,4,2):  101 y(4,0,2) - u(0,4,2) >= -0
MCLin5(0,4,2):  -79 y(4,0,2) + v(0,4,2) - u(0,4,2) >= -79
MCLin6(4,0,2):  u(4,0,2) >= -0
MCLin7(4,0,2):  -108 y(0,4,2) - u(4,0,2) <= -0
MCLin8(4,0,2):  72 y(0,4,2) + v(4,0,2) - u(4,0,2) <= 72
MCLin9(4,0,2):  72 y(0,4,2) - u(4,0,2) >= -0
MCLin10(4,0,2):  -108 y(0,4,2) + v(4,0,2) - u(4,0,2) >= -108
MCLinV(0,4,3):  x(0,3) - v(0,4,3) - x(4,3) = 6
MCLinV(4,0,3):  - x(0,3) - v(4,0,3) + x(4,3) = 2
MCLin1(0,4,3):  u(0,4,3) >= -0
MCLin2(0,4,3):  -87 y(4,0,3) - u(0,4,3) <= -0
MCLin3(0,4,3):  93 y(4,0,3) + v(0,4,3) - u(0,4,3) <= 93
MCLin4(0,4,3):  93 y(4,0,3) - u(0,4,3) >= -0
MCLin5(0,4,3):  -87 y(4,0,3) + v(0,4,3) - u(0,4,3) >= -87
MCLin6(4,0,3):  u(4,0,3) >= -0
MCLin7(4,0,3):  -101 y(0,4,3) - u(4,0,3) <= -0
MCLin8(4,0,3):  79 y(0,4,3) + v(4,0,3) - u(4,0,3) <= 79
MCLin9(4,0,3):  79 y(0,4,3) - u(4,0,3) >= -0
MCLin10(4,0,3):  -101 y(0,4,3) + v(4,0,3) - u(4,0,3) >= -101
MCLinV(1,2,0):  x(1,0) - v(1,2,0) - x(2,0) = 3
MCLinV(2,1,0):  - x(1,0) - v(2,1,0) + x(2,0) = 6
MCLin1(1,2,0):  u(1,2,0) >= -0
MCLin2(1,2,0):  -106 y(2,1,0) - u(1,2,0) <= -0
MCLin3(1,2,0):  64 y(2,1,0) + v(1,2,0) - u(1,2,0) <= 64
MCLin4(1,2,0):  64 y(2,1,0) - u(1,2,0) >= -0
MCLin5(1,2,0):  -106 y(2,1,0) + v(1,2,0) - u(1,2,0) >= -106
MCLin6(2,1,0):  u(2,1,0) >= -0
MCLin7(2,1,0):  -73 y(1,2,0) - u(2,1,0) <= -0
MCLin8(2,1,0):  97 y(1,2,0) + v(2,1,0) - u(2,1,0) <= 97
MCLin9(2,1,0):  97 y(1,2,0) - u(2,1,0) >= -0
MCLin10(2,1,0):  -73 y(1,2,0) + v(2,1,0) - u(2,1,0) >= -73
MCLinV(1,2,1):  x(1,1) - v(1,2,1) - x(2,1) = 10
MCLinV(2,1,1):  - x(1,1) - v(2,1,1) + x(2,1) = 1
MCLin1(1,2,1):  u(1,2,1) >= -0
MCLin2(1,2,1):  -91 y(2,1,1) - u(1,2,1) <= -0
MCLin3(1,2,1):  79 y(2,1,1) + v(1,2,1) - u(1,2,1) <= 79
MCLin4(1,2,1):  79 y(2,1,1) - u(1,2,1) >= -0
MCLin5(1,2,1):  -91 y(2,1,1) + v(1,2,1) - u(1,2,1) >= -91
MCLin6(2,1,1):  u(2,1,1) >= -0
MCLin7(2,1,1):  -90 y(1,2,1) - u(2,1,1) <= -0
MCLin8(2,1,1):  80 y(1,2,1) + v(2,1,1) - u(2,1,1) <= 80
MCLin9(2,1,1):  80 y(1,2,1) - u(2,1,1) >= -0
MCLin10(2,1,1):  -90 y(1,2,1) + v(2,1,1) - u(2,1,1) >= -90
MCLinV(1,2,2):  x(1,2) - v(1,2,2) - x(2,2) = 10
MCLinV(2,1,2):  - x(1,2) - v(2,1,2) + x(2,2) = 8
MCLin1(1,2,2):  u(1,2,2) >= -0
MCLin2(1,2,2):  -80 y(2,1,2) - u(1,2,2) <= -0
MCLin3(1,2,2):  90 y(2,1,2) + v(1,2,2) - u(1,2,2) <= 90
MCLin4(1,2,2):  90 y(2,1,2) - u(1,2,2) >= -0
MCLin5(1,2,2):  -80 y(2,1,2) + v(1,2,2) - u(1,2,2) >= -80
MCLin6(2,1,2):  u(2,1,2) >= -0
MCLin7(2,1,2):  -108 y(1,2,2) - u(2,1,2) <= -0
MCLin8(2,1,2):  62 y(1,2,2) + v(2,1,2) - u(2,1,2) <= 62
MCLin9(2,1,2):  62 y(1,2,2) - u(2,1,2) >= -0
MCLin10(2,1,2):  -108 y(1,2,2) + v(2,1,2) - u(2,1,2) >= -108
MCLinV(1,2,3):  x(1,3) - v(1,2,3) - x(2,3) = 6
MCLinV(2,1,3):  - x(1,3) - v(2,1,3) + x(2,3) = 2
MCLin1(1,2,3):  u(1,2,3) >= -0
MCLin2(1,2,3):  -105 y(2,1,3) - u(1,2,3) <= -0
MCLin3(1,2,3):  65 y(2,1,3) + v(1,2,3) - u(1,2,3) <= 65
MCLin4(1,2,3):  65 y(2,1,3) - u(1,2,3) >= -0
MCLin5(1,2,3):  -105 y(2,1,3) + v(1,2,3) - u(1,2,3) >= -105
MCLin6(2,1,3):  u(2,1,3) >= -0
MCLin7(2,1,3):  -73 y(1,2,3) - u(2,1,3) <= -0
MCLin8(2,1,3):  97 y(1,2,3) + v(2,1,3) - u(2,1,3) <= 97
MCLin9(2,1,3):  97 y(1,2,3) - u(2,1,3) >= -0
MCLin10(2,1,3):  -73 y(1,2,3) + v(2,1,3) - u(2,1,3) >= -73
MCLinV(1,3,0):  x(1,0) - v(1,3,0) - x(3,0) = 6
MCLinV(3,1,0):  - x(1,0) - v(3,1,0) + x(3,0) = 6
MCLin1(1,3,0):  u(1,3,0) >= -0
MCLin2(1,3,0):  -88 y(3,1,0) - u(1,3,0) <= -0
MCLin3(1,3,0):  85 y(3,1,0) + v(1,3,0) - u(1,3,0) <= 85
MCLin4(1,3,0):  85 y(3,1,0) - u(1,3,0) >= -0
MCLin5(1,3,0):  -88 y(3,1,0) + v(1,3,0) - u(1,3,0) >= -88
MCLin6(3,1,0):  u(3,1,0) >= -0
MCLin7(3,1,0):  -97 y(1,3,0) - u(3,1,0) <= -0
MCLin8(3,1,0):  76 y(1,3,0) + v(3,1,0) - u(3,1,0) <= 76
MCLin9(3,1,0):  76 y(1,3,0) - u(3,1,0) >= -0
MCLin10(3,1,0):  -97 y(1,3,0) + v(3,1,0) - u(3,1,0) >= -97
MCLinV(1,3,1):  x(1,1) - v(1,3,1) - x(3,1) = 9
MCLinV(3,1,1):  - x(1,1) - v(3,1,1) + x(3,1) = 1
MCLin1(1,3,1):  u(1,3,1) >= -0
MCLin2(1,3,1):  -91 y(3,1,1) - u(1,3,1) <= -0
MCLin3(1,3,1):  82 y(3,1,1) + v(1,3,1) - u(1,3,1) <= 82
MCLin4(1,3,1):  82 y(3,1,1) - u(1,3,1) >= -0
MCLin5(1,3,1):  -91 y(3,1,1) + v(1,3,1) - u(1,3,1) >= -91
MCLin6(3,1,1):  u(3,1,1) >= -0
MCLin7(3,1,1):  -92 y(1,3,1) - u(3,1,1) <= -0
MCLin8(3,1,1):  81 y(1,3,1) + v(3,1,1) - u(3,1,1) <= 81
MCLin9(3,1,1):  81 y(1,3,1) - u(3,1,1) >= -0
MCLin10(3,1,1):  -92 y(1,3,1) + v(3,1,1) - u(3,1,1) >= -92
MCLinV(1,3,2):  x(1,2) - v(1,3,2) - x(3,2) = 9
MCLinV(3,1,2):  - x(1,2) - v(3,1,2) + x(3,2) = 8
MCLin1(1,3,2):  u(1,3,2) >= -0
MCLin2(1,3,2):  -99 y(3,1,2) - u(1,3,2) <= -0
MCLin3(1,3,2):  74 y(3,1,2) + v(1,3,2) - u(1,3,2) <= 74
MCLin4(1,3,2):  74 y(3,1,2) - u(1,3,2) >= -0
MCLin5(1,3,2):  -99 y(3,1,2) + v(1,3,2) - u(1,3,2) >= -99
MCLin6(3,1,2):  u(3,1,2) >= -0
MCLin7(3,1,2):  -91 y(1,3,2) - u(3,1,2) <= -0
MCLin8(3,1,2):  82 y(1,3,2) + v(3,1,2) - u(3,1,2) <= 82
MCLin9(3,1,2):  82 y(1,3,2) - u(3,1,2) >= -0
MCLin10(3,1,2):  -91 y(1,3,2) + v(3,1,2) - u(3,1,2) >= -91
MCLinV(1,3,3):  x(1,3) - v(1,3,3) - x(3,3) = 2
MCLinV(3,1,3):  - x(1,3) - v(3,1,3) + x(3,3) = 2
MCLin1(1,3,3):  u(1,3,3) >= -0
MCLin2(1,3,3):  -84 y(3,1,3) - u(1,3,3) <= -0
MCLin3(1,3,3):  89 y(3,1,3) + v(1,3,3) - u(1,3,3) <= 89
MCLin4(1,3,3):  89 y(3,1,3) - u(1,3,3) >= -0
MCLin5(1,3,3):  -84 y(3,1,3) + v(1,3,3) - u(1,3,3) >= -84
MCLin6(3,1,3):  u(3,1,3) >= -0
MCLin7(3,1,3):  -93 y(1,3,3) - u(3,1,3) <= -0
MCLin8(3,1,3):  80 y(1,3,3) + v(3,1,3) - u(3,1,3) <= 80
MCLin9(3,1,3):  80 y(1,3,3) - u(3,1,3) >= -0
MCLin10(3,1,3):  -93 y(1,3,3) + v(3,1,3) - u(3,1,3) >= -93
MCLinV(1,4,0):  x(1,0) - v(1,4,0) - x(4,0) = 3
MCLinV(4,1,0):  - x(1,0) - v(4,1,0) + x(4,0) = 6
MCLin1(1,4,0):  u(1,4,0) >= -0
MCLin2(1,4,0):  -99 y(4,1,0) - u(1,4,0) <= -0
MCLin3(1,4,0):  81 y(4,1,0) + v(1,4,0) - u(1,4,0) <= 81
MCLin4(1,4,0):  81 y(4,1,0) - u(1,4,0) >= -0
MCLin5(1,4,0):  -99 y(4,1,0) + v(1,4,0) - u(1,4,0) >= -99
MCLin6(4,1,0):  u(4,1,0) >= -0
MCLin7(4,1,0):  -90 y(1,4,0) - u(4,1,0) <= -0
MCLin8(4,1,0):  90 y(1,4,0) + v(4,1,0) - u(4,1,0) <= 90
MCLin9(4,1,0):  90 y(1,4,0) - u(4,1,0) >= -0
MCLin10(4,1,0):  -90 y(1,4,0) + v(4,1,0) - u(4,1,0) >= -90
MCLinV(1,4,1):  x(1,1) - v(1,4,1) - x(4,1) = 7
MCLinV(4,1,1):  - x(1,1) - v(4,1,1) + x(4,1) = 1
MCLin1(1,4,1):  u(1,4,1) >= -0
MCLin2(1,4,1):  -100 y(4,1,1) - u(1,4,1) <= -0
MCLin3(1,4,1):  80 y(4,1,1) + v(1,4,1) - u(1,4,1) <= 80
MCLin4(1,4,1):  80 y(4,1,1) - u(1,4,1) >= -0
MCLin5(1,4,1):  -100 y(4,1,1) + v(1,4,1) - u(1,4,1) >= -100
MCLin6(4,1,1):  u(4,1,1) >= -0
MCLin7(4,1,1):  -88 y(1,4,1) - u(4,1,1) <= -0
MCLin8(4,1,1):  92 y(1,4,1) + v(4,1,1) - u(4,1,1) <= 92
MCLin9(4,1,1):  92 y(1,4,1) - u(4,1,1) >= -0
MCLin10(4,1,1):  -88 y(1,4,1) + v(4,1,1) - u(4,1,1) >= -88
MCLinV(1,4,2):  x(1,2) - v(1,4,2) - x(4,2) = 3
MCLinV(4,1,2):  - x(1,2) - v(4,1,2) + x(4,2) = 8
MCLin1(1,4,2):  u(1,4,2) >= -0
MCLin2(1,4,2):  -83 y(4,1,2) - u(1,4,2) <= -0
MCLin3(1,4,2):  97 y(4,1,2) + v(1,4,2) - u(1,4,2) <= 97
MCLin4(1,4,2):  97 y(4,1,2) - u(1,4,2) >= -0
MCLin5(1,4,2):  -83 y(4,1,2) + v(1,4,2) - u(1,4,2) >= -83
MCLin6(4,1,2):  u(4,1,2) >= -0
MCLin7(4,1,2):  -108 y(1,4,2) - u(4,1,2) <= -0
MCLin8(4,1,2):  72 y(1,4,2) + v(4,1,2) - u(4,1,2) <= 72
MCLin9(4,1,2):  72 y(1,4,2) - u(4,1,2) >= -0
MCLin10(4,1,2):  -108 y(1,4,2) + v(4,1,2) - u(4,1,2) >= -108
MCLinV(1,4,3):  x(1,3) - v(1,4,3) - x(4,3) = 6
MCLinV(4,1,3):  - x(1,3) - v(4,1,3) + x(4,3) = 2
MCLin1(1,4,3):  u(1,4,3) >= -0
MCLin2(1,4,3):  -98 y(4,1,3) - u(1,4,3) <= -0
MCLin3(1,4,3):  82 y(4,1,3) + v(1,4,3) - u(1,4,3) <= 82
MCLin4(1,4,3):  82 y(4,1,3) - u(1,4,3) >= -0
MCLin5(1,4,3):  -98 y(4,1,3) + v(1,4,3) - u(1,4,3) >= -98
MCLin6(4,1,3):  u(4,1,3) >= -0
MCLin7(4,1,3):  -90 y(1,4,3) - u(4,1,3) <= -0
MCLin8(4,1,3):  90 y(1,4,3) + v(4,1,3) - u(4,1,3) <= 90
MCLin9(4,1,3):  90 y(1,4,3) - u(4,1,3) >= -0
MCLin10(4,1,3):  -90 y(1,4,3) + v(4,1,3) - u(4,1,3) >= -90
MCLinV(2,3,0):  x(2,0) - v(2,3,0) - x(3,0) = 6
MCLinV(3,2,0):  - x(2,0) - v(3,2,0) + x(3,0) = 3
MCLin1(2,3,0):  u(2,3,0) >= -0
MCLin2(2,3,0):  -64 y(3,2,0) - u(2,3,0) <= -0
MCLin3(2,3,0):  97 y(3,2,0) + v(2,3,0) - u(2,3,0) <= 97
MCLin4(2,3,0):  97 y(3,2,0) - u(2,3,0) >= -0
MCLin5(2,3,0):  -64 y(3,2,0) + v(2,3,0) - u(2,3,0) >= -64
MCLin6(3,2,0):  u(3,2,0) >= -0
MCLin7(3,2,0):  -106 y(2,3,0) - u(3,2,0) <= -0
MCLin8(3,2,0):  55 y(2,3,0) + v(3,2,0) - u(3,2,0) <= 55
MCLin9(3,2,0):  55 y(2,3,0) - u(3,2,0) >= -0
MCLin10(3,2,0):  -106 y(2,3,0) + v(3,2,0) - u(3,2,0) >= -106
MCLinV(2,3,1):  x(2,1) - v(2,3,1) - x(3,1) = 9
MCLinV(3,2,1):  - x(2,1) - v(3,2,1) + x(3,1) = 10
MCLin1(2,3,1):  u(2,3,1) >= -0
MCLin2(2,3,1):  -89 y(3,2,1) - u(2,3,1) <= -0
MCLin3(2,3,1):  72 y(3,2,1) + v(2,3,1) - u(2,3,1) <= 72
MCLin4(2,3,1):  72 y(3,2,1) - u(2,3,1) >= -0
MCLin5(2,3,1):  -89 y(3,2,1) + v(2,3,1) - u(2,3,1) >= -89
MCLin6(3,2,1):  u(3,2,1) >= -0
MCLin7(3,2,1):  -91 y(2,3,1) - u(3,2,1) <= -0
MCLin8(3,2,1):  70 y(2,3,1) + v(3,2,1) - u(3,2,1) <= 70
MCLin9(3,2,1):  70 y(2,3,1) - u(3,2,1) >= -0
MCLin10(3,2,1):  -91 y(2,3,1) + v(3,2,1) - u(3,2,1) >= -91
MCLinV(2,3,2):  x(2,2) - v(2,3,2) - x(3,2) = 9
MCLinV(3,2,2):  - x(2,2) - v(3,2,2) + x(3,2) = 10
MCLin1(2,3,2):  u(2,3,2) >= -0
MCLin2(2,3,2):  -108 y(3,2,2) - u(2,3,2) <= -0
MCLin3(2,3,2):  53 y(3,2,2) + v(2,3,2) - u(2,3,2) <= 53
MCLin4(2,3,2):  53 y(3,2,2) - u(2,3,2) >= -0
MCLin5(2,3,2):  -108 y(3,2,2) + v(2,3,2) - u(2,3,2) >= -108
MCLin6(3,2,2):  u(3,2,2) >= -0
MCLin7(3,2,2):  -72 y(2,3,2) - u(3,2,2) <= -0
MCLin8(3,2,2):  89 y(2,3,2) + v(3,2,2) - u(3,2,2) <= 89
MCLin9(3,2,2):  89 y(2,3,2) - u(3,2,2) >= -0
MCLin10(3,2,2):  -72 y(2,3,2) + v(3,2,2) - u(3,2,2) >= -72
MCLinV(2,3,3):  x(2,3) - v(2,3,3) - x(3,3) = 2
MCLinV(3,2,3):  - x(2,3) - v(3,2,3) + x(3,3) = 6
MCLin1(2,3,3):  u(2,3,3) >= -0
MCLin2(2,3,3):  -64 y(3,2,3) - u(2,3,3) <= -0
MCLin3(2,3,3):  97 y(3,2,3) + v(2,3,3) - u(2,3,3) <= 97
MCLin4(2,3,3):  97 y(3,2,3) - u(2,3,3) >= -0
MCLin5(2,3,3):  -64 y(3,2,3) + v(2,3,3) - u(2,3,3) >= -64
MCLin6(3,2,3):  u(3,2,3) >= -0
MCLin7(3,2,3):  -105 y(2,3,3) - u(3,2,3) <= -0
MCLin8(3,2,3):  56 y(2,3,3) + v(3,2,3) - u(3,2,3) <= 56
MCLin9(3,2,3):  56 y(2,3,3) - u(3,2,3) >= -0
MCLin10(3,2,3):  -105 y(2,3,3) + v(3,2,3) - u(3,2,3) >= -105
MCLinV(2,4,0):  x(2,0) - v(2,4,0) - x(4,0) = 3
MCLinV(4,2,0):  - x(2,0) - v(4,2,0) + x(4,0) = 3
MCLin1(2,4,0):  u(2,4,0) >= -0
MCLin2(2,4,0):  -75 y(4,2,0) - u(2,4,0) <= -0
MCLin3(2,4,0):  93 y(4,2,0) + v(2,4,0) - u(2,4,0) <= 93
MCLin4(2,4,0):  93 y(4,2,0) - u(2,4,0) >= -0
MCLin5(2,4,0):  -75 y(4,2,0) + v(2,4,0) - u(2,4,0) >= -75
MCLin6(4,2,0):  u(4,2,0) >= -0
MCLin7(4,2,0):  -99 y(2,4,0) - u(4,2,0) <= -0
MCLin8(4,2,0):  69 y(2,4,0) + v(4,2,0) - u(4,2,0) <= 69
MCLin9(4,2,0):  69 y(2,4,0) - u(4,2,0) >= -0
MCLin10(4,2,0):  -99 y(2,4,0) + v(4,2,0) - u(4,2,0) >= -99
MCLinV(2,4,1):  x(2,1) - v(2,4,1) - x(4,1) = 7
MCLinV(4,2,1):  - x(2,1) - v(4,2,1) + x(4,1) = 10
MCLin1(2,4,1):  u(2,4,1) >= -0
MCLin2(2,4,1):  -98 y(4,2,1) - u(2,4,1) <= -0
MCLin3(2,4,1):  70 y(4,2,1) + v(2,4,1) - u(2,4,1) <= 70
MCLin4(2,4,1):  70 y(4,2,1) - u(2,4,1) >= -0
MCLin5(2,4,1):  -98 y(4,2,1) + v(2,4,1) - u(2,4,1) >= -98
MCLin6(4,2,1):  u(4,2,1) >= -0
MCLin7(4,2,1):  -87 y(2,4,1) - u(4,2,1) <= -0
MCLin8(4,2,1):  81 y(2,4,1) + v(4,2,1) - u(4,2,1) <= 81
MCLin9(4,2,1):  81 y(2,4,1) - u(4,2,1) >= -0
MCLin10(4,2,1):  -87 y(2,4,1) + v(4,2,1) - u(4,2,1) >= -87
MCLinV(2,4,2):  x(2,2) - v(2,4,2) - x(4,2) = 3
MCLinV(4,2,2):  - x(2,2) - v(4,2,2) + x(4,2) = 10
MCLin1(2,4,2):  u(2,4,2) >= -0
MCLin2(2,4,2):  -92 y(4,2,2) - u(2,4,2) <= -0
MCLin3(2,4,2):  76 y(4,2,2) + v(2,4,2) - u(2,4,2) <= 76
MCLin4(2,4,2):  76 y(4,2,2) - u(2,4,2) >= -0
MCLin5(2,4,2):  -92 y(4,2,2) + v(2,4,2) - u(2,4,2) >= -92
MCLin6(4,2,2):  u(4,2,2) >= -0
MCLin7(4,2,2):  -89 y(2,4,2) - u(4,2,2) <= -0
MCLin8(4,2,2):  79 y(2,4,2) + v(4,2,2) - u(4,2,2) <= 79
MCLin9(4,2,2):  79 y(2,4,2) - u(4,2,2) >= -0
MCLin10(4,2,2):  -89 y(2,4,2) + v(4,2,2) - u(4,2,2) >= -89
MCLinV(2,4,3):  x(2,3) - v(2,4,3) - x(4,3) = 6
MCLinV(4,2,3):  - x(2,3) - v(4,2,3) + x(4,3) = 6
MCLin1(2,4,3):  u(2,4,3) >= -0
MCLin2(2,4,3):  -78 y(4,2,3) - u(2,4,3) <= -0
MCLin3(2,4,3):  90 y(4,2,3) + v(2,4,3) - u(2,4,3) <= 90
MCLin4(2,4,3):  90 y(4,2,3) - u(2,4,3) >= -0
MCLin5(2,4,3):  -78 y(4,2,3) + v(2,4,3) - u(2,4,3) >= -78
MCLin6(4,2,3):  u(4,2,3) >= -0
MCLin7(4,2,3):  -102 y(2,4,3) - u(4,2,3) <= -0
MCLin8(4,2,3):  66 y(2,4,3) + v(4,2,3) - u(4,2,3) <= 66
MCLin9(4,2,3):  66 y(2,4,3) - u(4,2,3) >= -0
MCLin10(4,2,3):  -102 y(2,4,3) + v(4,2,3) - u(4,2,3) >= -102
MCLinV(3,4,0):  x(3,0) - v(3,4,0) - x(4,0) = 3
MCLinV(4,3,0):  - x(3,0) - v(4,3,0) + x(4,0) = 6
MCLin1(3,4,0):  u(3,4,0) >= -0
MCLin2(3,4,0):  -99 y(4,3,0) - u(3,4,0) <= -0
MCLin3(3,4,0):  72 y(4,3,0) + v(3,4,0) - u(3,4,0) <= 72
MCLin4(3,4,0):  72 y(4,3,0) - u(3,4,0) >= -0
MCLin5(3,4,0):  -99 y(4,3,0) + v(3,4,0) - u(3,4,0) >= -99
MCLin6(4,3,0):  u(4,3,0) >= -0
MCLin7(4,3,0):  -81 y(3,4,0) - u(4,3,0) <= -0
MCLin8(4,3,0):  90 y(3,4,0) + v(4,3,0) - u(4,3,0) <= 90
MCLin9(4,3,0):  90 y(3,4,0) - u(4,3,0) >= -0
MCLin10(4,3,0):  -81 y(3,4,0) + v(4,3,0) - u(4,3,0) >= -81
MCLinV(3,4,1):  x(3,1) - v(3,4,1) - x(4,1) = 7
MCLinV(4,3,1):  - x(3,1) - v(4,3,1) + x(4,1) = 9
MCLin1(3,4,1):  u(3,4,1) >= -0
MCLin2(3,4,1):  -100 y(4,3,1) - u(3,4,1) <= -0
MCLin3(3,4,1):  71 y(4,3,1) + v(3,4,1) - u(3,4,1) <= 71
MCLin4(3,4,1):  71 y(4,3,1) - u(3,4,1) >= -0
MCLin5(3,4,1):  -100 y(4,3,1) + v(3,4,1) - u(3,4,1) >= -100
MCLin6(4,3,1):  u(4,3,1) >= -0
MCLin7(4,3,1):  -87 y(3,4,1) - u(4,3,1) <= -0
MCLin8(4,3,1):  84 y(3,4,1) + v(4,3,1) - u(4,3,1) <= 84
MCLin9(4,3,1):  84 y(3,4,1) - u(4,3,1) >= -0
MCLin10(4,3,1):  -87 y(3,4,1) + v(4,3,1) - u(4,3,1) >= -87
MCLinV(3,4,2):  x(3,2) - v(3,4,2) - x(4,2) = 3
MCLinV(4,3,2):  - x(3,2) - v(4,3,2) + x(4,2) = 9
MCLin1(3,4,2):  u(3,4,2) >= -0
MCLin2(3,4,2):  -75 y(4,3,2) - u(3,4,2) <= -0
MCLin3(3,4,2):  96 y(4,3,2) + v(3,4,2) - u(3,4,2) <= 96
MCLin4(3,4,2):  96 y(4,3,2) - u(3,4,2) >= -0
MCLin5(3,4,2):  -75 y(4,3,2) + v(3,4,2) - u(3,4,2) >= -75
MCLin6(4,3,2):  u(4,3,2) >= -0
MCLin7(4,3,2):  -108 y(3,4,2) - u(4,3,2) <= -0
MCLin8(4,3,2):  63 y(3,4,2) + v(4,3,2) - u(4,3,2) <= 63
MCLin9(4,3,2):  63 y(3,4,2) - u(4,3,2) >= -0
MCLin10(4,3,2):  -108 y(3,4,2) + v(4,3,2) - u(4,3,2) >= -108
MCLinV(3,4,3):  x(3,3) - v(3,4,3) - x(4,3) = 6
MCLinV(4,3,3):  - x(3,3) - v(4,3,3) + x(4,3) = 2
MCLin1(3,4,3):  u(3,4,3) >= -0
MCLin2(3,4,3):  -98 y(4,3,3) - u(3,4,3) <= -0
MCLin3(3,4,3):  73 y(4,3,3) + v(3,4,3) - u(3,4,3) <= 73
MCLin4(3,4,3):  73 y(4,3,3) - u(3,4,3) >= -0
MCLin5(3,4,3):  -98 y(4,3,3) + v(3,4,3) - u(3,4,3) >= -98
MCLin6(4,3,3):  u(4,3,3) >= -0
MCLin7(4,3,3):  -81 y(3,4,3) - u(4,3,3) <= -0
MCLin8(4,3,3):  90 y(3,4,3) + v(4,3,3) - u(4,3,3) <= 90
MCLin9(4,3,3):  90 y(3,4,3) - u(4,3,3) >= -0
MCLin10(4,3,3):  -81 y(3,4,3) + v(4,3,3) - u(4,3,3) >= -81
makespan(0):  C - x(0,2) >= 4
makespan(1):  C - x(1,2) >= 8
makespan(2):  C - x(2,0) >= 3
makespan(3):  C - x(3,2) >= 9
makespan(4):  C - x(4,1) >= 7
Bounds
 0 <= C <= 108
 3 <= x(0,0) <= 94
 0 <= y(0,1,0) <= 1
 0 <= y(1,0,0) <= 1
 -96 <= v(0,1,0) <= 86
 -100 <= v(1,0,0) <= 82
 -1080 <= u(0,1,0)
 -1080 <= u(1,0,0)
 0 <= y(0,2,0) <= 1
 0 <= y(2,0,0) <= 1
 -105 <= v(0,2,0) <= 65
 -76 <= v(2,0,0) <= 94
 -1080 <= u(0,2,0)
 -1080 <= u(2,0,0)
 0 <= y(0,3,0) <= 1
 0 <= y(3,0,0) <= 1
 -87 <= v(0,3,0) <= 86
 -100 <= v(3,0,0) <= 73
 -1080 <= u(0,3,0)
 -1080 <= u(3,0,0)
 0 <= y(0,4,0) <= 1
 0 <= y(4,0,0) <= 1
 -98 <= v(0,4,0) <= 82
 -93 <= v(4,0,0) <= 87
 -1080 <= u(0,4,0)
 -1080 <= u(4,0,0)
 2 <= x(1,0) <= 93
 0 <= y(1,2,0) <= 1
 0 <= y(2,1,0) <= 1
 -106 <= v(1,2,0) <= 64
 -73 <= v(2,1,0) <= 97
 -1080 <= u(1,2,0)
 -1080 <= u(2,1,0)
 0 <= y(1,3,0) <= 1
 0 <= y(3,1,0) <= 1
 -88 <= v(1,3,0) <= 85
 -97 <= v(3,1,0) <= 76
 -1080 <= u(1,3,0)
 -1080 <= u(3,1,0)
 0 <= y(1,4,0) <= 1
 0 <= y(4,1,0) <= 1
 -99 <= v(1,4,0) <= 81
 -90 <= v(4,1,0) <= 90
 -1080 <= u(1,4,0)
 -1080 <= u(4,1,0)
 26 <= x(2,0) <= 105
 0 <= y(2,3,0) <= 1
 0 <= y(3,2,0) <= 1
 -64 <= v(2,3,0) <= 97
 -106 <= v(3,2,0) <= 55
 -1080 <= u(2,3,0)
 -1080 <= u(3,2,0)
 0 <= y(2,4,0) <= 1
 0 <= y(4,2,0) <= 1
 -75 <= v(2,4,0) <= 93
 -99 <= v(4,2,0) <= 69
 -1080 <= u(2,4,0)
 -1080 <= u(4,2,0)
 2 <= x(3,0) <= 84
 0 <= y(3,4,0) <= 1
 0 <= y(4,3,0) <= 1
 -99 <= v(3,4,0) <= 72
 -81 <= v(4,3,0) <= 90
 -1080 <= u(3,4,0)
 -1080 <= u(4,3,0)
 9 <= x(4,0) <= 98
 0 <= x(0,1) <= 91
 0 <= y(0,1,1) <= 1
 0 <= y(1,0,1) <= 1
 -100 <= v(0,1,1) <= 82
 -86 <= v(1,0,1) <= 96
 -1080 <= u(0,1,1)
 -1080 <= u(1,0,1)
 0 <= y(0,2,1) <= 1
 0 <= y(2,0,1) <= 1
 -99 <= v(0,2,1) <= 71
 -84 <= v(2,0,1) <= 86
 -1080 <= u(0,2,1)
 -1080 <= u(2,0,1)
 0 <= y(0,3,1) <= 1
 0 <= y(3,0,1) <= 1
 -99 <= v(0,3,1) <= 74
 -86 <= v(3,0,1) <= 87
 -1080 <= u(0,3,1)
 -1080 <= u(3,0,1)
 0 <= y(0,4,1) <= 1
 0 <= y(4,0,1) <= 1
 -108 <= v(0,4,1) <= 72
 -82 <= v(4,0,1) <= 98
 -1080 <= u(0,4,1)
 -1080 <= u(4,0,1)
 8 <= x(1,1) <= 99
 0 <= y(1,2,1) <= 1
 0 <= y(2,1,1) <= 1
 -91 <= v(1,2,1) <= 79
 -90 <= v(2,1,1) <= 80
 -1080 <= u(1,2,1)
 -1080 <= u(2,1,1)
 0 <= y(1,3,1) <= 1
 0 <= y(3,1,1) <= 1
 -91 <= v(1,3,1) <= 82
 -92 <= v(3,1,1) <= 81
 -1080 <= u(1,3,1)
 -1080 <= u(3,1,1)
 0 <= y(1,4,1) <= 1
 0 <= y(4,1,1) <= 1
 -100 <= v(1,4,1) <= 80
 -88 <= v(4,1,1) <= 92
 -1080 <= u(1,4,1)
 -1080 <= u(4,1,1)
 10 <= x(2,1) <= 89
 0 <= y(2,3,1) <= 1
 0 <= y(3,2,1) <= 1
 -89 <= v(2,3,1) <= 72
 -91 <= v(3,2,1) <= 70
 -1080 <= u(2,3,1)
 -1080 <= u(3,2,1)
 0 <= y(2,4,1) <= 1
 0 <= y(4,2,1) <= 1
 -98 <= v(2,4,1) <= 70
 -87 <= v(4,2,1) <= 81
 -1080 <= u(2,4,1)
 -1080 <= u(4,2,1)
 8 <= x(3,1) <= 90
 0 <= y(3,4,1) <= 1
 0 <= y(4,3,1) <= 1
 -100 <= v(3,4,1) <= 71
 -87 <= v(4,3,1) <= 84
 -1080 <= u(3,4,1)
 -1080 <= u(4,3,1)
 12 <= x(4,1) <= 101
 13 <= x(0,2) <= 104
 0 <= y(0,1,2) <= 1
 0 <= y(1,0,2) <= 1
 -95 <= v(0,1,2) <= 87
 -99 <= v(1,0,2) <= 83
 -1080 <= u(0,1,2)
 -1080 <= u(1,0,2)
 0 <= y(0,2,2) <= 1
 0 <= y(2,0,2) <= 1
 -76 <= v(0,2,2) <= 94
 -108 <= v(2,0,2) <= 62
 -1080 <= u(0,2,2)
 -1080 <= u(2,0,2)
 0 <= y(0,3,2) <= 1
 0 <= y(3,0,2) <= 1
 -95 <= v(0,3,2) <= 78
 -91 <= v(3,0,2) <= 82
 -1080 <= u(0,3,2)
 -1080 <= u(3,0,2)
 0 <= y(0,4,2) <= 1
 0 <= y(4,0,2) <= 1
 -79 <= v(0,4,2) <= 101
 -108 <= v(4,0,2) <= 72
 -1080 <= u(0,4,2)
 -1080 <= u(4,0,2)
 9 <= x(1,2) <= 100
 0 <= y(1,2,2) <= 1
 0 <= y(2,1,2) <= 1
 -80 <= v(1,2,2) <= 90
 -108 <= v(2,1,2) <= 62
 -1080 <= u(1,2,2)
 -1080 <= u(2,1,2)
 0 <= y(1,3,2) <= 1
 0 <= y(3,1,2) <= 1
 -99 <= v(1,3,2) <= 74
 -91 <= v(3,1,2) <= 82
 -1080 <= u(1,3,2)
 -1080 <= u(3,1,2)
 0 <= y(1,4,2) <= 1
 0 <= y(4,1,2) <= 1
 -83 <= v(1,4,2) <= 97
 -108 <= v(4,1,2) <= 72
 -1080 <= u(1,4,2)
 -1080 <= u(4,1,2)
 0 <= x(2,2) <= 79
 0 <= y(2,3,2) <= 1
 0 <= y(3,2,2) <= 1
 -108 <= v(2,3,2) <= 53
 -72 <= v(3,2,2) <= 89
 -1080 <= u(2,3,2)
 -1080 <= u(3,2,2)
 0 <= y(2,4,2) <= 1
 0 <= y(4,2,2) <= 1
 -92 <= v(2,4,2) <= 76
 -89 <= v(4,2,2) <= 79
 -1080 <= u(2,4,2)
 -1080 <= u(4,2,2)
 17 <= x(3,2) <= 99
 0 <= y(3,4,2) <= 1
 0 <= y(4,3,2) <= 1
 -75 <= v(3,4,2) <= 96
 -108 <= v(4,3,2) <= 63
 -1080 <= u(3,4,2)
 -1080 <= u(4,3,2)
 0 <= x(4,2) <= 89
 11 <= x(0,3) <= 102
 0 <= y(0,1,3) <= 1
 0 <= y(1,0,3) <= 1
 -82 <= v(0,1,3) <= 100
 -104 <= v(1,0,3) <= 78
 -1080 <= u(0,1,3)
 -1080 <= u(1,0,3)
 0 <= y(0,2,3) <= 1
 0 <= y(2,0,3) <= 1
 -94 <= v(0,2,3) <= 76
 -84 <= v(2,0,3) <= 86
 -1080 <= u(0,2,3)
 -1080 <= u(2,0,3)
 0 <= y(0,3,3) <= 1
 0 <= y(3,0,3) <= 1
 -73 <= v(0,3,3) <= 100
 -104 <= v(3,0,3) <= 69
 -1080 <= u(0,3,3)
 -1080 <= u(3,0,3)
 0 <= y(0,4,3) <= 1
 0 <= y(4,0,3) <= 1
 -87 <= v(0,4,3) <= 93
 -101 <= v(4,0,3) <= 79
 -1080 <= u(0,4,3)
 -1080 <= u(4,0,3)
 0 <= x(1,3) <= 91
 0 <= y(1,2,3) <= 1
 0 <= y(2,1,3) <= 1
 -105 <= v(1,2,3) <= 65
 -73 <= v(2,1,3) <= 97
 -1080 <= u(1,2,3)
 -1080 <= u(2,1,3)
 0 <= y(1,3,3) <= 1
 0 <= y(3,1,3) <= 1
 -84 <= v(1,3,3) <= 89
 -93 <= v(3,1,3) <= 80
 -1080 <= u(1,3,3)
 -1080 <= u(3,1,3)
 0 <= y(1,4,3) <= 1
 0 <= y(4,1,3) <= 1
 -98 <= v(1,4,3) <= 82
 -90 <= v(4,1,3) <= 90
 -1080 <= u(1,4,3)
 -1080 <= u(4,1,3)
 20 <= x(2,3) <= 99
 0 <= y(2,3,3) <= 1
 0 <= y(3,2,3) <= 1
 -64 <= v(2,3,3) <= 97
 -105 <= v(3,2,3) <= 56
 -1080 <= u(2,3,3)
 -1080 <= u(3,2,3)
 0 <= y(2,4,3) <= 1
 0 <= y(4,2,3) <= 1
 -78 <= v(2,4,3) <= 90
 -102 <= v(4,2,3) <= 66
 -1080 <= u(2,4,3)
 -1080 <= u(4,2,3)
 0 <= x(3,3) <= 82
 0 <= y(3,4,3) <= 1
 0 <= y(4,3,3) <= 1
 -98 <= v(3,4,3) <= 73
 -81 <= v(4,3,3) <= 90
 -1080 <= u(3,4,3)
 -1080 <= u(4,3,3)
 3 <= x(4,3) <= 92
Integers
C x(0,0) y(0,1,0) y(1,0,0) v(0,1,0) v(1,0,0) u(0,1,0) u(1,0,0) y(0,2,0) y(2,0,0) 
v(0,2,0) v(2,0,0) u(0,2,0) u(2,0,0) y(0,3,0) y(3,0,0) v(0,3,0) v(3,0,0) u(0,3,0) u(3,0,0) 
y(0,4,0) y(4,0,0) v(0,4,0) v(4,0,0) u(0,4,0) u(4,0,0) x(1,0) y(1,2,0) y(2,1,0) v(1,2,0) 
v(2,1,0) u(1,2,0) u(2,1,0) y(1,3,0) y(3,1,0) v(1,3,0) v(3,1,0) u(1,3,0) u(3,1,0) y(1,4,0) 
y(4,1,0) v(1,4,0) v(4,1,0) u(1,4,0) u(4,1,0) x(2,0) y(2,3,0) y(3,2,0) v(2,3,0) v(3,2,0) 
u(2,3,0) u(3,2,0) y(2,4,0) y(4,2,0) v(2,4,0) v(4,2,0) u(2,4,0) u(4,2,0) x(3,0) y(3,4,0) 
y(4,3,0) v(3,4,0) v(4,3,0) u(3,4,0) u(4,3,0) x(4,0) x(0,1) y(0,1,1) y(1,0,1) v(0,1,1) 
v(1,0,1) u(0,1,1) u(1,0,1) y(0,2,1) y(2,0,1) v(0,2,1) v(2,0,1) u(0,2,1) u(2,0,1) y(0,3,1) 
y(3,0,1) v(0,3,1) v(3,0,1) u(0,3,1) u(3,0,1) y(0,4,1) y(4,0,1) v(0,4,1) v(4,0,1) u(0,4,1) 
u(4,0,1) x(1,1) y(1,2,1) y(2,1,1) v(1,2,1) v(2,1,1) u(1,2,1) u(2,1,1) y(1,3,1) y(3,1,1) 
v(1,3,1) v(3,1,1) u(1,3,1) u(3,1,1) y(1,4,1) y(4,1,1) v(1,4,1) v(4,1,1) u(1,4,1) u(4,1,1) 
x(2,1) y(2,3,1) y(3,2,1) v(2,3,1) v(3,2,1) u(2,3,1) u(3,2,1) y(2,4,1) y(4,2,1) v(2,4,1) 
v(4,2,1) u(2,4,1) u(4,2,1) x(3,1) y(3,4,1) y(4,3,1) v(3,4,1) v(4,3,1) u(3,4,1) u(4,3,1) 
x(4,1) x(0,2) y(0,1,2) y(1,0,2) v(0,1,2) v(1,0,2) u(0,1,2) u(1,0,2) y(0,2,2) y(2,0,2) 
v(0,2,2) v(2,0,2) u(0,2,2) u(2,0,2) y(0,3,2) y(3,0,2) v(0,3,2) v(3,0,2) u(0,3,2) u(3,0,2) 
y(0,4,2) y(4,0,2) v(0,4,2) v(4,0,2) u(0,4,2) u(4,0,2) x(1,2) y(1,2,2) y(2,1,2) v(1,2,2) 
v(2,1,2) u(1,2,2) u(2,1,2) y(1,3,2) y(3,1,2) v(1,3,2) v(3,1,2) u(1,3,2) u(3,1,2) y(1,4,2) 
y(4,1,2) v(1,4,2) v(4,1,2) u(1,4,2) u(4,1,2) x(2,2) y(2,3,2) y(3,2,2) v(2,3,2) v(3,2,2) 
u(2,3,2) u(3,2,2) y(2,4,2) y(4,2,2) v(2,4,2) v(4,2,2) u(2,4,2) u(4,2,2) x(3,2) y(3,4,2) 
y(4,3,2) v(3,4,2) v(4,3,2) u(3,4,2) u(4,3,2) x(4,2) x(0,3) y(0,1,3) y(1,0,3) v(0,1,3) 
v(1,0,3) u(0,1,3) u(1,0,3) y(0,2,3) y(2,0,3) v(0,2,3) v(2,0,3) u(0,2,3) u(2,0,3) y(0,3,3) 
y(3,0,3) v(0,3,3) v(3,0,3) u(0,3,3) u(3,0,3) y(0,4,3) y(4,0,3) v(0,4,3) v(4,0,3) u(0,4,3) 
u(4,0,3) x(1,3) y(1,2,3) y(2,1,3) v(1,2,3) v(2,1,3) u(1,2,3) u(2,1,3) y(1,3,3) y(3,1,3) 
v(1,3,3) v(3,1,3) u(1,3,3) u(3,1,3) y(1,4,3) y(4,1,3) v(1,4,3) v(4,1,3) u(1,4,3) u(4,1,3) 
x(2,3) y(2,3,3) y(3,2,3) v(2,3,3) v(3,2,3) u(2,3,3) u(3,2,3) y(2,4,3) y(4,2,3) v(2,4,3) 
v(4,2,3) u(2,4,3) u(4,2,3) x(3,3) y(3,4,3) y(4,3,3) v(3,4,3) v(4,3,3) u(3,4,3) u(4,3,3) 
x(4,3) 
End
